50

100 2 317
98 48 305
97 31 294
97 37 437
92 8 413
92 39 450
92 2 341
91 34 330
88 4 423
84 12 411
83 39 263
82 8 276
77 16 399
77 27 348
76 5 254
75 29 348
74 8 346
73 14 376
72 9 376
70 4 383
70 9 276
67 22 284
66 10 425
65 24 442
63 22 387
62 19 426
62 5 277
62 30 421
62 14 385
58 22 344
57 18 428
57 15 419
54 10 426
53 19 349
52 25 364
52 26 297
50 11 190
46 7 428
45 4 446
43 12 308
42 1 213
41 3 243
41 14 309
41 12 400
40 4 195
37 18 117
37 13 275
36 15 369
33 14 382
33 13 318
